% Logging successfully configured
%%%mzn-stat: initTime=0.17422662
%%%mzn-stat: objective=760
%%%mzn-stat: nodes=538
%%%mzn-stat: restarts=0
%%%mzn-stat: peakDepth=294
%%%mzn-stat: solveTime=0.029422638
%%%mzn-stat: variables=649
%%%mzn-stat: propagators=1662
%%%mzn-stat: failures=209
%%%mzn-stat: propagations=81112
%%%mzn-stat: nogoods=209
%%%mzn-stat: numAtomicConstraintsPropagated=0
%%%mzn-stat: circuitNumber1226PropagationsThatFoundConflict=125
%%%mzn-stat: circuitNumber1226TotalFixedEdgesAtConflict=4912
%%%mzn-stat: circuitNumber1226NumberOfConflicts=125
%%%mzn-stat: circuitNumber1226PropagationsThatPruned=89
%%%mzn-stat: circuitNumber1226PropagationsTotal=456
%%%mzn-stat: AverageConflictSize=11.45933014354067
%%%mzn-stat: NumUnitNogoodsLearned=0
%%%mzn-stat: AverageLearnedNogoodLength=16.75598086124402
%%%mzn-stat: AverageBacktrackAmount=0
%%%mzn-stat: AverageLbd=13.38755980861244
%%%mzn-stat: 2AutonomousSearchNumBackupCalled=262
%%%mzn-stat: 2AutonomousSearchNumPredicatesRemoved=0
%%%mzn-stat: 2AutonomousSearchNumCalls=263
%%%mzn-stat: 2AutonomousSearchNumPredicatesAdded=1632
%%%mzn-stat: 2AutonomousSearchAverageSizeOfHeap=6.20532319391635
%%%mzn-stat: 2AutonomousSearchNumAssignedPredicatesEncountered=1632
%%%mzn-stat-end
maxleg = 760;
succ = array1d(1..50,[3, 12, 11, 8, 9, 16, 20, 1, 14, 22, 6, 15, 2, 18, 36, 17, 40, 19, 28, 27, 25, 26, 7, 38, 39, 23, 45, 31, 5, 29, 43, 37, 30, 33, 10, 49, 42, 44, 46, 48, 35, 50, 4, 21, 47, 32, 24, 13, 41, 34]);
% time elapsed: 20.24 s
----------
%%%mzn-stat: initTime=0.17422662
%%%mzn-stat: objective=679
%%%mzn-stat: nodes=4897
%%%mzn-stat: restarts=0
%%%mzn-stat: peakDepth=294
%%%mzn-stat: solveTime=0.444947093
%%%mzn-stat: variables=649
%%%mzn-stat: propagators=1662
%%%mzn-stat: failures=2517
%%%mzn-stat: propagations=1134950
%%%mzn-stat: nogoods=2517
%%%mzn-stat: numAtomicConstraintsPropagated=0
%%%mzn-stat: circuitNumber1226PropagationsThatFoundConflict=415
%%%mzn-stat: circuitNumber1226TotalFixedEdgesAtConflict=13996
%%%mzn-stat: circuitNumber1226NumberOfConflicts=415
%%%mzn-stat: circuitNumber1226PropagationsThatPruned=787
%%%mzn-stat: circuitNumber1226PropagationsTotal=5307
%%%mzn-stat: AverageConflictSize=8.024235200635678
%%%mzn-stat: NumUnitNogoodsLearned=0
%%%mzn-stat: AverageLearnedNogoodLength=24.66865315852205
%%%mzn-stat: AverageBacktrackAmount=0
%%%mzn-stat: AverageLbd=16.009137862534764
%%%mzn-stat: 2AutonomousSearchNumBackupCalled=525
%%%mzn-stat: 2AutonomousSearchNumPredicatesRemoved=0
%%%mzn-stat: 2AutonomousSearchNumCalls=527
%%%mzn-stat: 2AutonomousSearchNumPredicatesAdded=3762
%%%mzn-stat: 2AutonomousSearchAverageSizeOfHeap=7.324478178368121
%%%mzn-stat: 2AutonomousSearchNumAssignedPredicatesEncountered=3860
%%%mzn-stat-end
maxleg = 679;
succ = array1d(1..50,[3, 12, 11, 8, 9, 16, 20, 21, 14, 1, 6, 15, 2, 18, 49, 17, 40, 19, 28, 27, 31, 10, 7, 4, 39, 23, 45, 36, 5, 29, 43, 37, 30, 33, 22, 35, 42, 24, 46, 48, 26, 50, 25, 38, 47, 32, 44, 13, 41, 34]);
% time elapsed: 20.66 s
----------
%%%mzn-stat: initTime=0.17422662
%%%mzn-stat: objective=360
%%%mzn-stat: nodes=13165
%%%mzn-stat: restarts=0
%%%mzn-stat: peakDepth=294
%%%mzn-stat: solveTime=1.068687181
%%%mzn-stat: variables=649
%%%mzn-stat: propagators=1662
%%%mzn-stat: failures=6171
%%%mzn-stat: propagations=2783309
%%%mzn-stat: nogoods=6171
%%%mzn-stat: numAtomicConstraintsPropagated=0
%%%mzn-stat: circuitNumber1226PropagationsThatFoundConflict=2249
%%%mzn-stat: circuitNumber1226TotalFixedEdgesAtConflict=80211
%%%mzn-stat: circuitNumber1226NumberOfConflicts=2249
%%%mzn-stat: circuitNumber1226PropagationsThatPruned=1761
%%%mzn-stat: circuitNumber1226PropagationsTotal=15957
%%%mzn-stat: AverageConflictSize=10.004699400421325
%%%mzn-stat: NumUnitNogoodsLearned=0
%%%mzn-stat: AverageLearnedNogoodLength=22.370118295251984
%%%mzn-stat: AverageBacktrackAmount=0
%%%mzn-stat: AverageLbd=14.146167557932264
%%%mzn-stat: 2AutonomousSearchNumBackupCalled=775
%%%mzn-stat: 2AutonomousSearchNumPredicatesRemoved=0
%%%mzn-stat: 2AutonomousSearchNumCalls=778
%%%mzn-stat: 2AutonomousSearchNumPredicatesAdded=6376
%%%mzn-stat: 2AutonomousSearchAverageSizeOfHeap=8.525706940874036
%%%mzn-stat: 2AutonomousSearchNumAssignedPredicatesEncountered=6633
%%%mzn-stat-end
maxleg = 360;
succ = array1d(1..50,[3, 12, 11, 8, 9, 16, 20, 21, 14, 1, 13, 36, 2, 18, 49, 17, 48, 19, 29, 27, 25, 10, 7, 4, 43, 23, 45, 39, 30, 33, 5, 6, 34, 50, 26, 35, 32, 24, 42, 15, 22, 46, 31, 38, 47, 37, 44, 40, 41, 28]);
% time elapsed: 21.29 s
----------
%%%mzn-stat: initTime=0.17422662
%%%mzn-stat: objective=325
%%%mzn-stat: nodes=13500
%%%mzn-stat: restarts=0
%%%mzn-stat: peakDepth=294
%%%mzn-stat: solveTime=1.072943416
%%%mzn-stat: variables=649
%%%mzn-stat: propagators=1662
%%%mzn-stat: failures=6193
%%%mzn-stat: propagations=2794365
%%%mzn-stat: nogoods=6193
%%%mzn-stat: numAtomicConstraintsPropagated=0
%%%mzn-stat: circuitNumber1226PropagationsThatFoundConflict=2260
%%%mzn-stat: circuitNumber1226TotalFixedEdgesAtConflict=80439
%%%mzn-stat: circuitNumber1226NumberOfConflicts=2260
%%%mzn-stat: circuitNumber1226PropagationsThatPruned=1762
%%%mzn-stat: circuitNumber1226PropagationsTotal=16050
%%%mzn-stat: AverageConflictSize=9.990311642176652
%%%mzn-stat: NumUnitNogoodsLearned=0
%%%mzn-stat: AverageLearnedNogoodLength=22.33424834490554
%%%mzn-stat: AverageBacktrackAmount=0
%%%mzn-stat: AverageLbd=14.121588890683029
%%%mzn-stat: 2AutonomousSearchNumBackupCalled=1030
%%%mzn-stat: 2AutonomousSearchNumPredicatesRemoved=0
%%%mzn-stat: 2AutonomousSearchNumCalls=1034
%%%mzn-stat: 2AutonomousSearchNumPredicatesAdded=7516
%%%mzn-stat: 2AutonomousSearchAverageSizeOfHeap=9.12862669245648
%%%mzn-stat: 2AutonomousSearchNumAssignedPredicatesEncountered=9439
%%%mzn-stat-end
maxleg = 325;
succ = array1d(1..50,[3, 12, 26, 8, 9, 11, 20, 21, 14, 1, 13, 15, 16, 18, 36, 17, 48, 19, 29, 27, 25, 10, 7, 4, 43, 23, 45, 39, 30, 33, 5, 6, 34, 50, 22, 49, 32, 24, 42, 2, 35, 46, 31, 38, 47, 37, 44, 40, 41, 28]);
% time elapsed: 21.30 s
----------
%%%mzn-stat: initTime=0.17422662
%%%mzn-stat: objective=305
%%%mzn-stat: nodes=14014
%%%mzn-stat: restarts=0
%%%mzn-stat: peakDepth=294
%%%mzn-stat: solveTime=1.089147748
%%%mzn-stat: variables=649
%%%mzn-stat: propagators=1662
%%%mzn-stat: failures=6289
%%%mzn-stat: propagations=2838872
%%%mzn-stat: nogoods=6289
%%%mzn-stat: numAtomicConstraintsPropagated=0
%%%mzn-stat: circuitNumber1226PropagationsThatFoundConflict=2306
%%%mzn-stat: circuitNumber1226TotalFixedEdgesAtConflict=81892
%%%mzn-stat: circuitNumber1226NumberOfConflicts=2306
%%%mzn-stat: circuitNumber1226PropagationsThatPruned=1790
%%%mzn-stat: circuitNumber1226PropagationsTotal=16374
%%%mzn-stat: AverageConflictSize=9.985848306567021
%%%mzn-stat: NumUnitNogoodsLearned=0
%%%mzn-stat: AverageLearnedNogoodLength=22.267928128478296
%%%mzn-stat: AverageBacktrackAmount=0
%%%mzn-stat: AverageLbd=14.086500238511688
%%%mzn-stat: 2AutonomousSearchNumBackupCalled=1292
%%%mzn-stat: 2AutonomousSearchNumPredicatesRemoved=0
%%%mzn-stat: 2AutonomousSearchNumCalls=1297
%%%mzn-stat: 2AutonomousSearchNumPredicatesAdded=9195
%%%mzn-stat: 2AutonomousSearchAverageSizeOfHeap=9.444872783346183
%%%mzn-stat: 2AutonomousSearchNumAssignedPredicatesEncountered=12250
%%%mzn-stat-end
maxleg = 305;
succ = array1d(1..50,[3, 12, 26, 8, 9, 11, 20, 21, 14, 22, 13, 1, 16, 18, 36, 17, 48, 19, 29, 27, 25, 41, 7, 4, 43, 23, 45, 39, 30, 33, 5, 6, 34, 50, 10, 35, 32, 24, 42, 15, 49, 46, 31, 38, 47, 37, 44, 40, 2, 28]);
% time elapsed: 21.31 s
----------
%%%mzn-stat: initTime=0.17422662
%%%mzn-stat: objective=287
%%%mzn-stat: nodes=14295
%%%mzn-stat: restarts=0
%%%mzn-stat: peakDepth=294
%%%mzn-stat: solveTime=1.090799342
%%%mzn-stat: variables=649
%%%mzn-stat: propagators=1662
%%%mzn-stat: failures=6291
%%%mzn-stat: propagations=2842896
%%%mzn-stat: nogoods=6291
%%%mzn-stat: numAtomicConstraintsPropagated=0
%%%mzn-stat: circuitNumber1226PropagationsThatFoundConflict=2306
%%%mzn-stat: circuitNumber1226TotalFixedEdgesAtConflict=81892
%%%mzn-stat: circuitNumber1226NumberOfConflicts=2306
%%%mzn-stat: circuitNumber1226PropagationsThatPruned=1792
%%%mzn-stat: circuitNumber1226PropagationsTotal=16411
%%%mzn-stat: AverageConflictSize=9.983309489747258
%%%mzn-stat: NumUnitNogoodsLearned=0
%%%mzn-stat: AverageLearnedNogoodLength=22.26339214751232
%%%mzn-stat: AverageBacktrackAmount=0
%%%mzn-stat: AverageLbd=14.083293594023207
%%%mzn-stat: 2AutonomousSearchNumBackupCalled=1537
%%%mzn-stat: 2AutonomousSearchNumPredicatesRemoved=0
%%%mzn-stat: 2AutonomousSearchNumCalls=1543
%%%mzn-stat: 2AutonomousSearchNumPredicatesAdded=9306
%%%mzn-stat: 2AutonomousSearchAverageSizeOfHeap=9.760855476344783
%%%mzn-stat: 2AutonomousSearchNumAssignedPredicatesEncountered=15061
%%%mzn-stat-end
maxleg = 287;
succ = array1d(1..50,[3, 12, 26, 8, 9, 11, 20, 21, 14, 22, 13, 1, 16, 18, 36, 17, 48, 19, 29, 47, 25, 41, 27, 4, 43, 23, 45, 39, 30, 33, 5, 6, 34, 50, 10, 35, 32, 24, 42, 15, 49, 46, 31, 38, 7, 37, 44, 40, 2, 28]);
% time elapsed: 21.32 s
----------
%%%mzn-stat: initTime=0.17422662
%%%mzn-stat: objective=284
%%%mzn-stat: nodes=14565
%%%mzn-stat: restarts=0
%%%mzn-stat: peakDepth=294
%%%mzn-stat: solveTime=1.091944317
%%%mzn-stat: variables=649
%%%mzn-stat: propagators=1662
%%%mzn-stat: failures=6291
%%%mzn-stat: propagations=2846116
%%%mzn-stat: nogoods=6291
%%%mzn-stat: numAtomicConstraintsPropagated=0
%%%mzn-stat: circuitNumber1226PropagationsThatFoundConflict=2306
%%%mzn-stat: circuitNumber1226TotalFixedEdgesAtConflict=81892
%%%mzn-stat: circuitNumber1226NumberOfConflicts=2306
%%%mzn-stat: circuitNumber1226PropagationsThatPruned=1794
%%%mzn-stat: circuitNumber1226PropagationsTotal=16441
%%%mzn-stat: AverageConflictSize=9.983309489747258
%%%mzn-stat: NumUnitNogoodsLearned=0
%%%mzn-stat: AverageLearnedNogoodLength=22.26339214751232
%%%mzn-stat: AverageBacktrackAmount=0
%%%mzn-stat: AverageLbd=14.083293594023207
%%%mzn-stat: 2AutonomousSearchNumBackupCalled=1779
%%%mzn-stat: 2AutonomousSearchNumPredicatesRemoved=0
%%%mzn-stat: 2AutonomousSearchNumCalls=1786
%%%mzn-stat: 2AutonomousSearchNumPredicatesAdded=9306
%%%mzn-stat: 2AutonomousSearchAverageSizeOfHeap=10.006718924972004
%%%mzn-stat: 2AutonomousSearchNumAssignedPredicatesEncountered=17872
%%%mzn-stat-end
maxleg = 284;
succ = array1d(1..50,[3, 12, 26, 8, 9, 11, 20, 21, 14, 22, 13, 1, 16, 18, 36, 17, 48, 19, 29, 47, 25, 41, 27, 38, 43, 23, 45, 39, 30, 33, 5, 6, 34, 50, 10, 35, 32, 4, 42, 15, 49, 46, 31, 24, 7, 37, 44, 40, 2, 28]);
% time elapsed: 21.32 s
----------
==========
% time elapsed: 272.24 s
%%%mzn-stat: initTime=0.17422662
%%%mzn-stat: objective=284
%%%mzn-stat: nodes=2419329
%%%mzn-stat: restarts=0
%%%mzn-stat: peakDepth=294
%%%mzn-stat: solveTime=252.015781515
%%%mzn-stat: variables=649
%%%mzn-stat: propagators=1662
%%%mzn-stat: failures=976005
%%%mzn-stat: propagations=362607435
%%%mzn-stat: nogoods=976005
%%%mzn-stat: numAtomicConstraintsPropagated=0
%%%mzn-stat: circuitNumber1226PropagationsThatFoundConflict=101401
%%%mzn-stat: circuitNumber1226TotalFixedEdgesAtConflict=3001492
%%%mzn-stat: circuitNumber1226NumberOfConflicts=101401
%%%mzn-stat: circuitNumber1226PropagationsThatPruned=195986
%%%mzn-stat: circuitNumber1226PropagationsTotal=2417404
%%%mzn-stat: AverageConflictSize=13.202136259547851
%%%mzn-stat: NumUnitNogoodsLearned=1
%%%mzn-stat: AverageLearnedNogoodLength=30.027158672342868
%%%mzn-stat: AverageBacktrackAmount=0
%%%mzn-stat: AverageLbd=9.980257273272166
%%%mzn-stat: 2AutonomousSearchNumBackupCalled=1779
%%%mzn-stat: 2AutonomousSearchNumPredicatesRemoved=0
%%%mzn-stat: 2AutonomousSearchNumCalls=1786
%%%mzn-stat: 2AutonomousSearchNumPredicatesAdded=13288
%%%mzn-stat: 2AutonomousSearchAverageSizeOfHeap=10.006718924972004
%%%mzn-stat: 2AutonomousSearchNumAssignedPredicatesEncountered=17872
%%%mzn-stat-end
